/*objective function*/
min: 12 q1 + 10 r1 + 14 q2 + 12 r2 + 16 q3 + 14 r3 + 18 q4 + 16 r4 + 2 s1 + 2 s2 + 2 s3 + 2 s4;
/*constraints*/
q1 + r1 - s1 = 100;
s1 + q2 + r2 - s2 = 200;
s2 + q3 + r3 - s3 = 150;
s3 + q4 + r4 - s4 = 400;

q1 - 150 <= 0;
r1 - M b1 <= 0;
q1 - 150 b1 >= 0;
q2 - 150 <= 0;
r2 - M b2 <= 0;
q2 - 150 b2 >= 0;
q3 - 150 <= 0;
r3 - M b3 <= 0;
q3 - 150 b3 >= 0;
q4 -150 <= 0;
r4 - M b4 <= 0;
q4 - 150 b4 >= 0;
M = 1000;

q1 + r1 - 400 <= 0;
q2 + r2 - 400 <= 0;
q3 + r3 - 300 <= 0;
q4 + r4 - 300 <= 0;

b1 <= 1;
b2 <= 1;
b3 <= 1;
b4 <= 1;

int b1, b2, b3, b4;
